CMD:
./solvers/bin/cadical --plain --no-reduce -t 1600 ./data/cnfs//circular_pointer_top_w32_d32_e0/circular_pointer_top_w32_d32_e0.85.cnf

c --- [ banner ] -------------------------------------------------------------
c 
c CaDiCaL SAT Solver
c Copyright (c) 2016-2024
c A. Biere, M. Fleury, N. Froleyks, K. Fazekas, F. Pollitt, T. Faller
c JKU Linz, University of Freiburg, TU Wien
c 
c Version 2.1.3 5296d3d2a9bf48c154ab2acb5e44625776d821bf
c g++ (Gentoo 12.3.1_p20230526 p2) 12.3.1 20230526 -Wall -Wextra -O3 -DNDEBUG
c Sat Aug 9 07:26:21 PDT 2025 Linux cedar2.int.cedar.computecanada.ca 5.14.0-362.24.2.el9_3.x86_64 x86_64
c 
c --- [ limit ] --------------------------------------------------------------
c 
c setting time limit to 1600 seconds real time (due to '-t 1600')
c 
c --- [ parsing input ] ------------------------------------------------------
c 
c reading DIMACS file from './data/cnfs//circular_pointer_top_w32_d32_e0/circular_pointer_top_w32_d32_e0.85.cnf'
c opening file to read './data/cnfs//circular_pointer_top_w32_d32_e0/circular_pointer_top_w32_d32_e0.85.cnf'
c found 'p cnf 706664 2098831' header
c parsed 2098831 clauses in 0.30 seconds process time
c 
c --- [ options ] ------------------------------------------------------------
c 
c   --compact=false                (different from default 'true')
c   --decompose=false              (different from default 'true')
c   --deduplicate=false            (different from default 'true')
c   --elim=false                   (different from default 'true')
c   --probe=false                  (different from default 'true')
c   --reduce=false                 (different from default 'true')
c   --subsume=false                (different from default 'true')
c   --ternary=false                (different from default 'true')
c   --transred=false               (different from default 'true')
c   --vivify=false                 (different from default 'true')
c 
c --- [ solving ] ------------------------------------------------------------
c 
c time measured in process time since initialization
c 
c  seconds   reductions  redundant   irredundant
c          MB    restarts       trail        variables
c           level   conflicts       glue           remaining
c 
c *  0.30 326  0 0   0    0    0  0% 0 2045996 678551 96%
c {  0.39 335  0 0   0    0    0  0% 0 2045996 678551 96%
c i  0.57 341 4758 0   2  529  486 72% 2 2045996 678371 96%
c i  0.65 341 4558 0   9  555  509 69% 2 2045996 677708 96%
c i  0.80 341 4160 0  25  618  566 65% 3 2045996 673624 95%
c i  0.80 341 4126 0  26  623  570 64% 3 2045996 673619 95%
c }  1.34 342 2661 0  78 1000  928 50% 10 2045996 673613 95%
c [  1.34 342  0 0  78 1000  928  0% 0 2045996 673613 95%
c O  1.43 342 1641 0  78 1003  931 65% 31 2045996 673613 95%
c ]  2.06 342 1449 0  79 3000 2775 37% 7 2045996 673613 95%
c {  2.06 342 2661 0  79 3000 2775 50% 10 2045996 673613 95%
c F  2.07 342 2648 0  81 3005 2780 49% 10 2045996 673613 95%
c i  2.25 342 1386 0 100 4049 3727 36% 8 2045996 672876 95%
c i  2.25 342 1386 0 100 4050 3727 36% 8 2045996 672273 95%
c i  2.26 342 1363 0 102 4087 3760 36% 8 2045996 671722 95%
c i  2.26 342 1328 0 102 4145 3809 35% 8 2045996 671720 95%
c i  2.26 342 1323 0 102 4154 3814 35% 8 2045996 670622 95%
c i  2.27 342 1319 0 102 4162 3819 35% 8 2045996 669928 95%
c i  2.27 342 1313 0 102 4174 3827 35% 8 2045996 669927 95%
c i  2.31 343 1167 0 112 4497 4127 33% 8 2045996 669858 95%
c 
c  seconds     reductions  redundant   irredundant
c          MB      restarts       trail        variables
c            level    conflicts       glue           remaining
c 
c i  2.31 343 1160 0 112 4511 4139 33% 8 2045996 669855 95%
c i  2.31 343 1160 0 112 4512 4139 33% 8 2045996 669851 95%
c i  2.31 343 1155 0 112 4525 4149 32% 8 2045996 669839 95%
c i  2.91 343 878 0 159 5452 5009 30% 9 2045996 669837 95%
c #  2.93 343 758 0 159 6006 5502 27% 8 2045996 669837 95%
c }  2.98 343 625 0 162 7003 6421 25% 7 2045996 669837 95%
c [  2.98 343 1449 0 162 7003 6421 37% 7 2045996 669837 95%
c i  3.04 343 1341 0 163 7265 6656 35% 6 2045996 663873 94%
c i  3.28 344 757 0 164 9352 8551 25% 10 2045996 662563 94%
c i  3.31 344 757 0 164 9392 8586 25% 10 2045996 662291 94%
c i  3.32 344 750 0 164 9436 8627 25% 10 2045996 662281 94%
c i  3.32 344 749 0 164 9442 8624 25% 10 2045996 662278 94%
c i  3.32 344 745 0 164 9471 8647 25% 10 2045996 662269 94%
c i  3.32 344 741 0 164 9503 8677 25% 10 2045996 662245 94%
c i  3.33 344 729 0 164 9588 8749 26% 10 2045996 662230 94%
c i  3.33 344 728 0 164 9596 8755 26% 10 2045996 662227 94%
c i  3.34 344 708 0 164 9743 8887 26% 10 2045996 660393 93%
c i  3.36 344 676 0 164 10003 9120 26% 9 2045996 660389 93%
c I  3.37 344 675 0 164 10011 9126 26% 9 2045996 660388 93%
c i  3.54 344 545 0 166 11563 10483 25% 8 2045996 660380 93%
c 
c  seconds    reductions    redundant   irredundant
c          MB     restarts         trail        variables
c            level    conflicts        glue           remaining
c 
c i  3.54 344 544 0 166 11582 10500 25% 8 2045996 660368 93%
c i  3.54 344 540 0 166 11623 10522 25% 8 2045996 660361 93%
c i  3.54 344 536 0 166 11673 10563 25% 8 2045996 660357 93%
c i  3.54 344 530 0 166 11759 10638 25% 8 2045996 660337 93%
... skipped 71213 lines ...
v -706173 706174 -706175 706176 -706177 706178 -706179 706180 -706181 706182
v -706183 706184 -706185 706186 -706187 706188 -706189 706190 -706191 706192
v -706193 706194 -706195 706196 -706197 706198 -706199 706200 -706201 706202
v -706203 706204 -706205 706206 -706207 706208 -706209 706210 -706211 706212
v -706213 706214 -706215 706216 -706217 706218 -706219 706220 -706221 706222
v -706223 706224 -706225 706226 -706227 706228 -706229 706230 -706231 706232
v -706233 706234 -706235 706236 -706237 706238 -706239 706240 -706241 706242
v -706243 706244 -706245 706246 -706247 706248 -706249 706250 -706251 706252
v -706253 706254 -706255 706256 -706257 706258 -706259 706260 -706261 706262
v -706263 -706264 706265 -706266 -706267 -706268 706269 -706270 -706271 706272
v -706273 706274 -706275 -706276 -706277 -706278 706279 -706280 706281 -706282
v 706283 -706284 706285 -706286 706287 -706288 706289 -706290 706291 -706292
v 706293 -706294 706295 -706296 706297 -706298 706299 -706300 706301 -706302
v 706303 -706304 706305 -706306 706307 -706308 706309 -706310 706311 -706312
v 706313 -706314 706315 -706316 706317 -706318 706319 -706320 706321 -706322
v 706323 -706324 706325 -706326 706327 -706328 706329 -706330 706331 -706332
v 706333 -706334 706335 -706336 706337 -706338 706339 -706340 706341 -706342
v 706343 -706344 706345 -706346 706347 -706348 706349 -706350 706351 -706352
v 706353 -706354 706355 -706356 706357 -706358 706359 -706360 706361 -706362
v 706363 -706364 706365 -706366 706367 -706368 706369 -706370 706371 -706372
v 706373 -706374 706375 -706376 706377 -706378 706379 -706380 706381 -706382
v 706383 -706384 706385 -706386 706387 -706388 706389 -706390 706391 -706392
v 706393 -706394 706395 -706396 706397 -706398 706399 -706400 706401 -706402
v 706403 -706404 706405 -706406 -706407 -706408 706409 -706410 706411 -706412
v -706413 706414 -706415 -706416 706417 -706418 706419 -706420 -706421 706422
v -706423 -706424 706425 -706426 706427 -706428 -706429 706430 -706431 -706432
v 706433 -706434 706435 -706436 -706437 706438 -706439 -706440 706441 -706442
v 706443 -706444 -706445 706446 -706447 -706448 706449 -706450 706451 -706452
v -706453 706454 -706455 -706456 706457 -706458 706459 -706460 -706461 706462
v -706463 -706464 706465 -706466 706467 -706468 -706469 706470 -706471 -706472
v 706473 -706474 706475 -706476 -706477 706478 -706479 -706480 706481 -706482
v 706483 -706484 -706485 706486 -706487 -706488 706489 -706490 706491 -706492
v -706493 706494 -706495 -706496 706497 -706498 706499 -706500 -706501 706502
v -706503 -706504 706505 -706506 706507 -706508 -706509 706510 -706511 -706512
v 706513 -706514 706515 -706516 -706517 706518 -706519 -706520 -706521 706522
v -706523 -706524 706525 -706526 706527 -706528 -706529 706530 -706531 -706532
v -706533 706534 -706535 -706536 -706537 -706538 -706539 706540 -706541
v -706542 706543 -706544 706545 -706546 706547 -706548 706549 -706550 706551
v -706552 706553 -706554 706555 -706556 706557 -706558 706559 -706560 706561
v -706562 706563 -706564 706565 -706566 706567 -706568 706569 -706570 706571
v -706572 706573 -706574 706575 -706576 706577 -706578 706579 -706580 706581
v -706582 706583 -706584 706585 -706586 706587 -706588 706589 -706590 706591
v -706592 706593 -706594 706595 -706596 706597 -706598 706599 -706600 706601
v -706602 706603 -706604 706605 -706606 -706607 706608 -706609 -706610 706611
v -706612 706613 -706614 706615 -706616 706617 -706618 706619 -706620 706621
v -706622 706623 -706624 706625 -706626 706627 -706628 706629 -706630 706631
v -706632 706633 -706634 706635 -706636 706637 -706638 706639 -706640 706641
v -706642 706643 -706644 706645 -706646 706647 -706648 706649 -706650 706651
v -706652 706653 -706654 706655 -706656 706657 -706658 706659 -706660 706661
v -706662 706663 -706664 0
c 
c --- [ run-time profiling ] -------------------------------------------------
c 
c process time taken by individual solving procedures
c (percentage relative to process time for solving)
c 
c        99.97  100.00% search
c        61.23   61.25% stable
c        36.30   36.31% unstable
c         2.35    2.35% walk
c         0.30    0.30% parse
c         0.09    0.09% lucky
c         0.00    0.00% simplify
c   =================================
c        99.97   99.68% solve
c 
c last line shows process time for solving
c (percentage relative to total process time)
c 
c --- [ statistics ] ---------------------------------------------------------
c 
c chronological:             70529        24.89 %  of conflicts
c conflicts:                283400      2834.97    per second
c decisions:               1092073     10924.46    per second
c fixed:                     65537         9.27 %  of all variables
c learned:                  276548        97.58 %  per conflict
c learned_lits:           19964552       100.00 %  learned literals
c minimized:                     0         0.00 %  learned literals
c shrunken:                4013388        20.10 %  learned literals
c minishrunken:            4015031        20.11 %  learned literals
c otfs:                       1506         0.53 %  of conflict
c propagations:         1680152172        16.81 M  per second
c rephased:                     23     12321.74    interval
c restarts:                   3766        75.25    interval
c stabilizing:                   4        59.97 %  of conflicts
c subsumed:                  17698         0.76 %  of all clauses
c strengthened:               1443         0.06 %  of all clauses
c walked:                        6     47233.33    interval
c 
c seconds are measured in process time for solving
c 
c --- [ resources ] ----------------------------------------------------------
c 
c total process time since initialization:       100.29    seconds
c total real time since initialization:          100.66    seconds
c maximum resident set size of process:          533.20    MB
c 
c --- [ shutting down ] ------------------------------------------------------
c 
c exit 10
